objective value:                                   -5
t_n_6                                               1 	(obj:-1)
t_n_550                                             1 	(obj:-1)
t_n_800                                             1 	(obj:-1)
t_n_1434                                            1 	(obj:-1)
t_n_1986                                            1 	(obj:-1)
